c --- [ banner ] -------------------------------------------------------------
c 
c CaDiCaL Radically Simplified CDCL SAT Solver
c Copyright (c) 2016-2021 A. Biere, M. Fleury, N. Froleyks
c 
c Version 1.5.2 a5f15211db36c3956764e18194dd5bd63bf3b5e6
c g++ (GCC) 9.3.0 -Wall -Wextra -O3 -DNDEBUG
c Fri Oct 21 01:27:37 EDT 2022 Linux gra-login3 3.10.0-1160.66.1.el7.x86_64 x86_64
c 
c --- [ limit ] --------------------------------------------------------------
c 
c setting conflict limit to 200000 conflicts (due to '200000')
c 
c --- [ parsing input ] ------------------------------------------------------
c 
c reading DIMACS file from '33.cubes1432.adj'
c opening file to read '33.cubes1432.adj'
c found 'p cnf 6160 1595472' header
c parsed 1595472 clauses in 20.02 seconds process time
c closing file '33.cubes1432.adj'
c after reading 1457566751 bytes 1390.0 MB
c 
c --- [ options ] ------------------------------------------------------------
c 
c all options are set to their default value
c 
c --- [ solving ] ------------------------------------------------------------
c 
c time measured in process time since initialization
c 
c  seconds    reductions  redundant   irredundant
c          MB     restarts       trail       variables
c            level   conflicts       glue         remaining
c 
c * 20.02 1366  0 0   0    0    0  0% 0 1595422 2460 40%
c { 21.09 1419  0 0   0    0    0  0% 0 1595422 2460 40%
c i 21.73 1442 932 0   0   12   11 35% 2 1595422 2448 40%
c i 22.35 1454 689 0   1   20   18 30% 3 1595422 2436 40%
c i 23.71 1478 401 0   6   43   38 29% 21 1595422 2432 39%
c i 25.40 1490 193 0  15  118   93 25% 18 1595422 2431 39%
c i 26.53 1495 119 0  20  259  197 27% 17 1595422 2430 39%
c i 26.55 1495 116 0  20  266  203 27% 17 1595422 2429 39%
c i 26.62 1495 114 0  20  272  208 27% 17 1595422 2428 39%
c i 26.66 1495 113 0  20  277  212 27% 17 1595422 2427 39%
c i 26.66 1495 112 0  20  278  212 27% 17 1595422 2426 39%
c i 26.73 1495 111 0  20  283  214 27% 17 1595422 2425 39%
c i 26.78 1495 109 0  20  290  218 27% 17 1595422 2424 39%
c - 30.50 1436 105 1  20  302  229 27% 17 306922 2424 39%
c i 30.72 1437 105 1  21  305  231 27% 17 306922 2423 39%
c i 31.02 1437 103 1  27  329  251 27% 18 306922 2422 39%
c i 31.18 1437 98 1  33  362  275 28% 21 306922 2421 39%
c i 31.42 1367 92 1  42  406  307 28% 22 306922 2412 39%
c i 31.47 1367 92 1  44  410  309 28% 22 306922 2408 39%
c i 31.52 1367 91 1  45  414  312 28% 22 306922 2407 39%
c 
c  seconds    reductions  redundant   irredundant
c          MB     restarts       trail       variables
c            level   conflicts       glue         remaining
c 
c i 31.53 1367 91 1  45  415  312 28% 21 306922 2406 39%
c i 31.55 1367 90 1  46  419  315 28% 21 306922 2405 39%
c i 31.63 1367 90 1  48  430  321 28% 22 306922 2404 39%
c i 31.73 1367 89 1  52  443  330 28% 22 306922 2403 39%
c i 31.82 1367 89 1  54  447  333 28% 22 306922 2402 39%
c i 32.03 1367 90 1  59  475  355 28% 23 306922 2401 39%
c i 32.05 1367 89 1  60  477  356 28% 23 306922 2400 39%
c i 32.16 1367 89 1  65  497  370 28% 23 306922 2399 39%
c i 32.21 1367 89 1  66  501  373 27% 23 306922 2398 39%
c i 32.33 1367 89 1  68  510  381 28% 24 306922 2397 39%
c i 32.36 1367 89 1  69  512  382 28% 24 306922 2396 39%
c i 32.43 1367 90 1  70  518  387 27% 24 306922 2387 39%
c i 32.52 1367 91 1  73  527  395 27% 25 306922 2382 39%
c i 32.70 1367 92 1  78  553  418 28% 26 306922 2350 38%
c i 32.71 1367 92 1  78  555  419 27% 27 306922 2349 38%
c i 32.82 1367 93 1  82  570  431 28% 28 306922 2333 38%
c i 32.83 1367 93 1  83  573  433 28% 28 306922 2332 38%
c i 33.37 1366 91 1  99  643  497 28% 29 306922 2331 38%
c i 33.45 1366 92 1 102  658  510 28% 31 306922 2330 38%
c i 33.61 1366 94 1 105  679  524 28% 32 306922 2329 38%
c 
c  seconds    reductions  redundant   irredundant
c          MB     restarts       trail       variables
c            level   conflicts       glue         remaining
c 
c i 34.05 1367 91 1 120  732  570 28% 32 306922 2328 38%
c i 34.19 1367 90 1 121  751  584 28% 32 306922 2327 38%
c i 34.21 1367 89 1 121  760  589 28% 32 306922 2326 38%
c i 34.24 1367 89 1 121  772  600 28% 31 306922 2325 38%
c i 34.33 1367 88 1 121  783  610 28% 31 306922 2324 38%
c i 34.35 1367 87 1 121  788  614 28% 31 306922 2323 38%
c i 34.38 1367 87 1 121  798  623 28% 31 306922 2322 38%
c i 34.38 1367 87 1 121  800  624 28% 31 306922 2321 38%
c i 34.39 1367 86 1 121  802  625 28% 31 306922 2320 38%
c i 34.39 1367 86 1 121  803  625 28% 31 306922 2319 38%
c i 34.40 1367 86 1 121  816  636 28% 31 306922 2318 38%
c i 34.42 1367 86 1 121  820  639 28% 31 306922 2317 38%
c i 34.45 1367 86 1 121  831  648 28% 31 306922 2316 38%
c i 34.45 1367 86 1 121  834  649 28% 31 306922 2314 38%
c i 34.53 1367 86 1 123  848  660 28% 31 306922 2313 38%
c i 34.62 1367 85 1 128  872  677 28% 32 306922 2312 38%
c i 34.62 1367 85 1 129  873  677 28% 32 306922 2311 38%
c i 34.67 1367 85 1 130  878  681 28% 32 306922 2310 38%
c i 34.71 1367 86 1 131  884  685 28% 31 306922 2308 37%
c i 35.13 1367 88 1 137  929  726 28% 32 306922 2307 37%
c 
c  seconds    reductions  redundant   irredundant
c          MB     restarts       trail       variables
c            level   conflicts       glue         remaining
c 
c i 35.39 1367 87 1 144  952  746 28% 32 306922 2306 37%
c i 35.46 1367 86 1 148  983  770 28% 32 306922 2305 37%
c } 35.48 1367 85 1 148 1001  781 28% 32 306922 2305 37%
c [ 35.48 1367  0 1 148 1001  781  0% 0 306922 2305 37%
c O 35.48 1367  4 1 148 1002  782 14% 4 306922 2305 37%
c i 35.62 1367 18 1 148 1014  793 26% 10 306922 2304 37%
c i 35.70 1367 39 1 148 1046  820 29% 28 306922 2303 37%
c i 35.72 1367 40 1 148 1065  836 30% 30 306922 2302 37%
c i 35.75 1367 39 1 148 1085  852 30% 30 306922 2301 37%
c i 35.77 1367 38 1 148 1106  872 30% 30 306922 2300 37%
c i 35.77 1367 38 1 148 1107  872 30% 30 306922 2299 37%
c i 35.77 1367 38 1 148 1108  872 30% 29 306922 2298 37%
c i 35.78 1367 36 1 148 1127  888 30% 28 306922 2297 37%
c i 35.79 1367 35 1 148 1155  913 30% 27 306922 2296 37%
c - 36.52 1473 34 2 148 1195  840 30% 27 237482 2296 37%
c i 36.57 1473 34 2 148 1202  845 30% 27 237482 2295 37%
c i 36.60 1473 33 2 148 1218  857 30% 26 237482 2294 37%
c i 36.79 1473 28 2 148 1480 1019 30% 22 237482 2293 37%
c i 36.82 1473 27 2 148 1586 1087 30% 22 237482 2292 37%
c i 36.83 1473 27 2 148 1617 1106 30% 21 237482 2291 37%
c 
c  seconds    reductions  redundant   irredundant
c          MB     restarts       trail       variables
c            level   conflicts       glue         remaining
c 
c i 36.91 1473 26 2 148 1914 1280 30% 21 237482 2290 37%
c - 37.46 1472 26 3 149 2434 1127 30% 22 237464 2290 37%
c i 37.91 1471 26 3 149 2778 1318 50% 22 237464 2289 37%
c ] 38.03 1471 26 3 149 3002 1457 50% 22 237464 2289 37%
c { 38.03 1471 85 3 149 3002 1457 75% 32 237464 2289 37%
c F 38.03 1471 85 3 149 3003 1457 75% 31 237464 2289 37%
c i 38.03 1471 85 3 149 3003 1457 75% 31 237464 2288 37%
c i 38.14 1471 83 3 149 3023 1475 74% 31 237464 2287 37%
c i 38.28 1471 83 3 149 3043 1491 74% 31 237464 2286 37%
c i 38.30 1471 83 3 149 3054 1501 73% 31 237464 2285 37%
c i 38.44 1471 84 3 153 3073 1519 73% 32 237464 2284 37%
c i 38.45 1471 84 3 154 3078 1522 73% 32 237464 2283 37%
c i 38.45 1471 84 3 154 3080 1523 73% 32 237464 2282 37%
c i 38.54 1471 85 3 158 3103 1541 72% 32 237464 2281 37%
c i 38.75 1472 85 3 167 3139 1573 71% 33 237464 2280 37%
c i 38.93 1472 83 3 177 3186 1604 70% 33 237464 2279 37%
c i 38.96 1472 83 3 180 3196 1612 70% 33 237464 2278 37%
c i 38.98 1472 82 3 180 3206 1620 69% 33 237464 2277 37%
c i 38.98 1472 82 3 180 3209 1622 69% 33 237464 2276 37%
c i 39.02 1472 82 3 180 3219 1631 69% 33 237464 2275 37%
c 
c  seconds    reductions  redundant   irredundant
c          MB     restarts       trail       variables
c            level   conflicts       glue         remaining
c 
c i 39.03 1472 82 3 180 3233 1639 69% 33 237464 2272 37%
c i 39.14 1472 83 3 186 3261 1666 68% 33 237464 2271 37%
c i 39.16 1472 83 3 187 3264 1668 68% 34 237464 2270 37%
c i 39.58 1472 83 3 209 3358 1744 67% 35 237464 2269 37%
c i 39.65 1472 83 3 211 3384 1769 66% 34 237464 2268 37%
c i 39.92 1472 83 3 231 3488 1853 65% 35 237464 2267 37%
c i 39.95 1472 83 3 233 3508 1867 65% 36 237464 2266 37%
c i 39.99 1472 81 3 236 3548 1901 64% 35 237464 2265 37%
c i 40.00 1472 81 3 236 3551 1903 64% 35 237464 2264 37%
c i 40.10 1472 81 3 236 3562 1912 64% 35 237464 2263 37%
c i 40.50 1472 79 3 244 3746 2071 62% 35 237464 2262 37%
c i 40.51 1472 79 3 244 3753 2077 62% 35 237464 2261 37%
c - 41.01 1466 73 4 245 4085 1789 60% 35 237377 2261 37%
c i 41.59 1466 59 4 245 4933 2326 56% 30 237377 2260 37%
c p 46.52 1466 58 4 245 5002 5862 56% 30 237348 2192 36%
c # 47.59 1466 50 4 245 6004 6586 54% 28 237348 2192 36%
c - 48.38 1368 49 5 245 6150 2346 54% 28 237187 2192 36%
c } 52.13 1368 54 5 401 7002 3114 52% 30 237187 2192 36%
c [ 52.13 1368 26 5 401 7002 3114 50% 22 237187 2192 36%
c - 53.87 1368 39 6 402 8626 3067 47% 31 237187 2192 36%
c 
c  seconds    reductions   redundant   irredundant
c          MB     restarts        trail       variables
c            level    conflicts       glue         remaining
c 
c I 54.90 1368 43 6 403 10008 4179 48% 34 237187 2192 36%
c - 59.23 1368 41 7 405 11515 3573 48% 33 237187 2192 36%
c - 66.23 1368 37 8 406 14817 3644 48% 30 237187 2192 36%
c ] 66.53 1368 36 8 406 15003 3735 48% 30 237187 2192 36%
c { 66.53 1368 54 8 406 15003 3735 52% 30 237187 2192 36%
c p 69.15 1368 54 8 407 15003 7521 52% 30 237187 2190 36%
c B 69.30 1368 54 8 408 15009 7527 52% 30 237187 2190 36%
c - 72.98 1368 44 9 427 18531 4247 50% 28 237181 2190 36%
c s 73.40 1368 43 9 427 18686 4281 50% 28 235072 2190 36%
c v 77.65 1368 43 9 427 18686 4281 50% 28 235058 2190 36%
c w 77.84 1368 43 9 427 18686 4278 50% 28 235058 2190 36%
c t 77.85 1368 43 9 427 18686 4269 50% 28 235045 2190 36%
c e 78.77 1371 43 9 427 18686 3889 50% 28 231645 604 10%
c s 78.87 1371 43 9 427 18686 3888 50% 28 231087 604 10%
c W 81.32 1373 38 9 427 21015 5371 88% 25 231087 604 10%
c - 82.23 1373 36 10 427 22661 4627 87% 25 231087 604 10%
c - 85.58 1373 31 11 430 27161 5068 87% 22 231087 604 10%
c F 86.00 1373 31 11 430 28017 5609 87% 22 231087 604 10%
c p 90.64 1373 31 11 596 30003 8416 86% 22 231087 603 10%
c } 91.17 1373 30 11 600 31004 9013 87% 22 231087 603 10%
c 
c  seconds    reductions    redundant    irredundant
c          MB      restarts        trail        variables
c            level     conflicts        glue        remaining
c 
c [ 91.17 1373 36 11 600 31004 9013 183% 30 231087 603 10%
c - 91.82 1373 35 12 600 32070 5700 172% 29 231084 603 10%
c B 93.74 1373 31 12 603 36020 8028 147% 26 231084 603 10%
c - 94.38 1373 38 13 603 37388 6341 141% 31 231084 603 10%
c - 96.46 1373 55 14 607 43116 7795 125% 41 231084 603 10%
c W 98.04 1373 58 14 607 45021 9477 121% 44 231084 603 10%
c - 99.42 1373 54 15 608 49254 7830 115% 42 231084 603 10%
c p 100.96 1373 54 15 608 50004 9860 114% 41 231084 603 10%
c ] 102.07 1373 52 15 608 52113 11284 112% 41 231084 603 10%
c 1 102.07 1373 52 15 608 52113 11284 112% 41 231084 603 10%
c 
c --- [ writing output ] -----------------------------------------------------
c 
c writing simplified CNF to DIMACS file 'simp/33.cubes1432.adj.simp1'
c * 102.07 1373 52 15 608 52113 11284 112% 41 231084 603 10%
c opening file to write 'simp/33.cubes1432.adj.simp1'
c writing 'p cnf 6160 231084' header
c closing file 'simp/33.cubes1432.adj.simp1'
c after writing 108555314 bytes 103.5 MB
c wrote 231084 clauses in 0.79 seconds process time
c 
c --- [ writing extension ] --------------------------------------------------
c 
c writing extension stack to 'simp/33.cubes1432.adj.ext1'
c opening file to write 'simp/33.cubes1432.adj.ext1'
c closing file 'simp/33.cubes1432.adj.ext1'
c after writing 104137 bytes 0.1 MB
c wrote 4542 witnesses in 0.00 seconds process time
c 
c --- [ result ] -------------------------------------------------------------
c 
s SATISFIABLE
c 
c --- [ run-time profiling ] -------------------------------------------------
c 
c process time taken by individual solving procedures
c (percentage relative to process time for solving)
c 
c        65.17   79.43% search
c        37.51   45.71% unstable
c        25.72   31.35% stable
c        20.02   24.40% parse
c        16.88   20.57% simplify
c         9.86   12.02% probe
c         4.42    5.38% vivify
c         1.72    2.10% elim
c         1.07    1.30% lucky
c         0.87    1.06% walk
c         0.20    0.24% subsume
c         0.13    0.16% ternary
c   =================================
c        82.05   79.77% solve
c 
c last line shows process time for solving
c (percentage relative to total process time)
c 
c --- [ statistics ] ---------------------------------------------------------
c 
c chronological:              8325        15.97 %  of conflicts
c conflicts:                 52113       635.14    per second
c decisions:                105682      1288.02    per second
c eliminated:                 1586        25.75 %  of all variables
c fixed:                       814        13.21 %  of all variables
c learned:                   51116        98.09 %  per conflict
c learned_lits:            9740662       100.00 %  learned literals
c minimized:                     0         0.00 %  learned literals
c shrunken:                5928890        60.87 %  learned literals
c minishrunken:             689058         7.07 %  learned literals
c propagations:            4446206         0.05 M  per second
c reduced:                   26256        50.38 %  per conflict
c rephased:                      9      5790.33    interval
c restarts:                    608        85.71    interval
c stabilizing:                   3        59.70 %  of conflicts
c substituted:                  13         0.21 %  of all variables
c subsumed:                  17315         0.50 %  of all clauses
c strengthened:               2643         0.08 %  of all clauses
c ternary:                    2631         0.59 %  of resolved
c vivified:                     26         0.00 %  of all clauses
c walked:                        2     26056.50    interval
c weakened:                   3728         3.05    average size
c 
c seconds are measured in process time for solving
c 
c --- [ resources ] ----------------------------------------------------------
c 
c total process time since initialization:       102.86    seconds
c total real time since initialization:          103.16    seconds
c maximum resident set size of process:         1577.57    MB
c 
c --- [ shutting down ] ------------------------------------------------------
c 
c exit 10
WARNING! DIMACS header mismatch: wrong number of variables.
============================[ Problem Statistics ]=============================
|                                                                             |
|  Number of variables:          2887                                         |
|  Number of clauses:          231084                                         |
|  Parse time:                   1.42 s                                       |
|  Simplification time:          0.03 s                                       |
|                                                                             |
============================[ Search Statistics ]====================================================
| Conflicts |          ORIGINAL         |          LEARNT          | Num Sols |      SUBGRAPHS      |
|           |    Vars  Clauses Literals |    Limit  Clauses Lit/Cl |          | Canonical Noncanon. |
=====================================================================================================
|       161 |    2795   231145 23348177 |     2000      161     56 |        0 |        21        61 |
|       314 |    2795   231148 23348255 |     2000      314     79 |        0 |        25        64 |
|       829 |    2795   231438 23352090 |     2000      829     58 |        0 |        70       354 |
|      1332 |    2795   231604 23355456 |     2000     1332     57 |        0 |       129       520 |
|      1889 |    2795   231655 23356438 |     2000     1889     65 |        0 |       154       571 |
|      2718 |    2795   231725 23357790 |     3599     1717     55 |        0 |       189       641 |
|      4018 |    2795   231886 23360876 |     3599     3017     70 |        0 |       252       802 |
|      6523 |    2795   232683 23377760 |     5000     3723     57 |        0 |       546      1599 |
|      9450 |    2795   233048 23385482 |     6307     4157     52 |        0 |       687      1964 |
|     13928 |    2795   233682 23398590 |     7557     5485     56 |        0 |       925      2598 |
|     19908 |    2795   233896 23403531 |     8784     7692     67 |        0 |      1017      2812 |
|     29939 |    2795   235278 23425733 |    11205     8344     48 |        0 |      1541      4194 |
|     43628 |    2795   235993 23438157 |    13614    10242     62 |        0 |      1849      4909 |
|     66147 |    2795   239051 23489044 |    17211    10558     42 |        0 |      2859      7967 |
|     99400 |    2795   243112 23554453 |    20818    16218     57 |        0 |      4680     12028 |
|    149696 |    2795   249619 23658505 |    25612    21308     52 |        0 |      7432     18535 |
|    219611 |    2795   253850 23727223 |    31614    21225     49 |        0 |     10260     22766 |
|    332914 |    2795   268627 23937538 |    38813    30727     53 |        0 |     17378     37543 |
|    489903 |    2795   277827 24070849 |    47215    39318     58 |        0 |     27859     46743 |
|    744610 |    2794   310825 24494285 |    59214    31024     28 |        0 |     47298     79767 |
|   1153828 |    2782   387517 25412128 |    73628    45456     30 |        0 |     81393    156460 |
=====================================================================================================
Number of solutions   : 0
Canonical subgraphs   : 107191         (35 /sec)
          order  3    : 1              (166667 /sec)
          order  4    : 1              (500000 /sec)
          order  5    : 1              (200000 /sec)
          order  6    : 1              (55556 /sec)
          order  7    : 1              (7937 /sec)
          order  8    : 2              (1373 /sec)
          order  9    : 5              (773 /sec)
          order 10    : 15             (424 /sec)
          order 11    : 45             (265 /sec)
          order 12    : 142            (192 /sec)
          order 13    : 1143           (123 /sec)
          order 14    : 5529           (88 /sec)
          order 15    : 29297          (46 /sec)
          order 16    : 30605          (33 /sec)
          order 17    : 29444          (27 /sec)
          order 18    : 6940           (29 /sec)
          order 19    : 2962           (30 /sec)
          order 20    : 576            (33 /sec)
          order 21    : 481            (32 /sec)
          order 22    : 0              (-nan /sec)
Noncanonical subgraphs: 265737         (206 /sec)
          order  3    : 0              (-nan /sec)
          order  4    : 0              (-nan /sec)
          order  5    : 0              (-nan /sec)
          order  6    : 0              (-nan /sec)
          order  7    : 0              (-nan /sec)
          order  8    : 0              (-nan /sec)
          order  9    : 0              (-nan /sec)
          order 10    : 0              (-nan /sec)
          order 11    : 0              (-nan /sec)
          order 12    : 0              (-nan /sec)
          order 13    : 3633           (6303 /sec)
          order 14    : 8581           (2955 /sec)
          order 15    : 142593         (425 /sec)
          order 16    : 44591          (189 /sec)
          order 17    : 65752          (94 /sec)
          order 18    : 18             (137 /sec)
          order 19    : 8              (99 /sec)
          order 20    : 0              (-nan /sec)
          order 21    : 1              (996 /sec)
Canonicity checking   : 3098.44 s
Noncanonicity checking: 1290.67 s
Total canonicity time : 4389.1 s
database reductions   : 69
restarts              : 3069
conflicts             : 1574389        (307 /sec)
decisions             : 2180842        (0.00 % random) (425 /sec)
propagations          : 59080885       (11502 /sec)
conflict literals     : 142964259      (56.83 % deleted)
actual reward         : 0.360621
Memory used           : 380.00 MB
CPU time              : 5136.44 s

UNSATISFIABLE
